Minimize

0 x_0_0 + 7 x_1_0 + 8 x_2_0 + 25 x_3_0 + 10 x_4_0 + 12 x_5_0 + 13 x_6_0


Subject To

a0: x_0_0 + x_0_1 + x_0_2 = 1
a1: x_1_0 + x_1_1 + x_1_2 = 1
a2: x_2_0 + x_2_1 + x_2_2 = 1
a3: x_3_0 + x_3_1 + x_3_2 = 1
a4: x_4_0 + x_4_1 + x_4_2 = 1
a5: x_5_0 + x_5_1 + x_5_2 = 1
a6: x_6_0 + x_6_1 + x_6_2 = 1
b0: 0 x_0_0 + 7 x_1_0 + 8 x_2_0 + 25 x_3_0 + 10 x_4_0 + 12 x_5_0 + 13 x_6_0 - 0 x_0_1 - 7 x_1_1 - 8 x_2_1 - 25 x_3_1 - 10 x_4_1 - 12 x_5_1 - 13 x_6_1 = 0
c0: 0 x_0_1 + 7 x_1_1 + 8 x_2_1 + 25 x_3_1 + 10 x_4_1 + 12 x_5_1 + 13 x_6_1 - 0 x_0_2 - 7 x_1_2 - 8 x_2_2 - 25 x_3_2 - 10 x_4_2 - 12 x_5_2 - 13 x_6_2 = 0




Binary

x_0_0 x_0_1 x_0_2 x_1_0 x_1_1 x_1_2 x_2_0 x_2_1 x_2_2 x_3_0 x_3_1 x_3_2 x_4_0 x_4_1 x_4_2 x_5_0 x_5_1 x_5_2 x_6_0 x_6_1 x_6_2

 
End
